124
0 36 71 17 33 4 52 56 119 30 
59 64 26 123 105 75 73 16 98 45 
12 97 94 27 80 88 100 57 122 15 
60 51 69 83 115 2 121 18 21 86 
48 55 62 42 11 77 1 116 3 74 
61 109 10 39 32 63 31 66 5 82 
117 110 7 85 104 101 72 41 79 92 
114 96 113 78 89 99 81 84 43 38 
90 111 103 93 24 23 28 35 14 70 
120 58 37 108 19 87 95 50 49 76 
40 9 68 106 54 13 112 91 6 67 
25 46 65 22 44 107 53 102 118 8 
20 29 47 34 
